LibMLKEM/why3-cvc5/mlkem.adb_845_19_postcondition_1.smt2
;; produced by cvc5.drv ;;
(set-logic ALL)
(set-info :smt-lib-version 2.6)
;;; generated by SMT-LIB2 driver
;;; SMT-LIB2 driver: bit-vectors, common part
;;; SMT-LIB2: integer arithmetic
;; "pow2"
(declare-fun pow2 (Int) Int)

(declare-const two_power_size_minus_one Int)

;; "two_power_size_minus_one_val"
(assert (= two_power_size_minus_one (pow2 (- 8 1))))

;; "min"
(define-fun min ((x Int) (y Int)) Int
  (ite (<= x y) x y))

;; "max"
(define-fun max ((x Int) (y Int)) Int
  (ite (<= x y) y x))

;; "Min_r"
(assert (forall ((x Int) (y Int)) (=> (<= y x) (= (min x y) y))))

;; "Max_l"
(assert (forall ((x Int) (y Int)) (=> (<= y x) (= (max x y) x))))

;; "Min_comm"
(assert (forall ((x Int) (y Int)) (= (min x y) (min y x))))

;; "Max_comm"
(assert (forall ((x Int) (y Int)) (= (max x y) (max y x))))

;; "Min_assoc"
(assert
  (forall ((x Int) (y Int) (z Int)) (= (min (min x y) z) (min x (min y z)))))

;; "Max_assoc"
(assert
  (forall ((x Int) (y Int) (z Int)) (= (max (max x y) z) (max x (max y z)))))

(declare-const two_power_size_minus_one1 Int)

;; "two_power_size_minus_one_val"
(assert (= two_power_size_minus_one1 (pow2 (- 16 1))))

(declare-sort u8_bit 0)

;; "in_range"
(define-fun in_range ((x (_ BitVec 8))) Bool
  (and (bvule #x00 x) (bvule x #x01)))

;; "to_rep"
(declare-fun to_rep (u8_bit) (_ BitVec 8))

;; "of_rep"
(declare-fun of_rep ((_ BitVec 8)) u8_bit)

;; "inversion_axiom"
(assert
  (forall ((x u8_bit)) (! (= (of_rep (to_rep x)) x) :pattern ((to_rep x)) )))

;; "range_axiom"
(assert
  (forall ((x u8_bit)) (! (in_range (to_rep x)) :pattern ((to_rep x)) )))

;; "coerce_axiom"
(assert
  (forall ((x (_ BitVec 8)))
    (! (=> (in_range x) (= (to_rep (of_rep x)) x)) :pattern ((to_rep
                                                               (of_rep x))) )))

(declare-sort map1 0)

;; "has_bounds"
(declare-fun has_bounds (map1
  Int
  Int) Bool)

;; "get"
(declare-fun get (map1
  Int) u8_bit)

(declare-const x map1)

;; Goal "def'vc"
;; File "mlkem.adb", line 831, characters 0-0
(assert
  (not
  (=>
    (has_bounds x 0 11)
    (forall ((o (_ BitVec 8)))
      (=>
        (= (to_rep (get x 11)) o)
        (forall ((o1 (_ BitVec 8)))
          (=>
            (= (to_rep (get x 10)) o1)
            (forall ((o2 (_ BitVec 8)))
              (=>
                (= (to_rep (get x 9)) o2)
                (forall ((o3 (_ BitVec 8)))
                  (=>
                    (= (to_rep (get x 8)) o3)
                    (forall ((o4 (_ BitVec 8)))
                      (=>
                        (= (to_rep (get x 7)) o4)
                        (forall ((o5 (_ BitVec 8)))
                          (=>
                            (= (to_rep (get x 6)) o5)
                            (forall ((o6 (_ BitVec 8)))
                              (=>
                                (= (to_rep (get x 5)) o6)
                                (forall ((o7 (_ BitVec 8)))
                                  (=>
                                    (= (to_rep (get x 4)) o7)
                                    (forall ((o8 (_ BitVec 8)))
                                      (=>
                                        (= (to_rep (get x 3)) o8)
                                        (forall ((o9 (_ BitVec 8)))
                                          (=>
                                            (= (to_rep (get x 2)) o9)
                                            (forall ((o10 (_ BitVec 8)))
                                              (=>
                                                (= (to_rep (get x 1)) o10)
                                                (forall ((o11 (_ BitVec 8)))
                                                  (=>
                                                    (= (to_rep (get x 0)) o11)
                                                    (forall ((mlkem__bits_12_to_u16__result (_ BitVec 16)))
                                                      (=>
                                                        (= mlkem__bits_12_to_u16__result (bvadd (bvadd (bvadd (bvadd (bvadd (bvadd (bvadd (bvadd (bvadd (bvadd (bvadd ((_ zero_extend 8) o11) (bvmul ((_ zero_extend 8) o10) #x0002)) (bvmul ((_ zero_extend 8) o9) #x0004)) (bvmul ((_ zero_extend 8) o8) #x0008)) (bvmul ((_ zero_extend 8) o7) #x0010)) (bvmul ((_ zero_extend 8) o6) #x0020)) (bvmul ((_ zero_extend 8) o5) #x0040)) (bvmul ((_ zero_extend 8) o4) #x0080)) (bvmul ((_ zero_extend 8) o3) #x0100)) (bvmul ((_ zero_extend 8) o2) #x0200)) (bvmul ((_ zero_extend 8) o1) #x0400)) (bvmul ((_ zero_extend 8) o) #x0800)))
                                                        (bvult mlkem__bits_12_to_u16__result #x1000))))))))))))))))))))))))))))))

(check-sat)
